11 965
525 7 479 7 355 7 106 9 927 13
525 7 445 7 264 7 63 9 889 11 721 18
520 7 441 7 296 7 180 12
520 7 441 7 296 7 180 12
520 7 440 7 284 7 102 12
535 8 491 8 398 9 231 10 100 15
520 7 443 7 262 7 50 12
525 7 445 7 264 7 63 9 879 13
525 7 445 7 264 7 63 9 879 13
525 7 479 7 355 7 106 9 927 13
525 7 479 7 355 7 106 9 927 13
